Gurobi Optimizer version 9.1.2 build v9.1.2rc0 (linux64)
Thread count: 36 physical cores, 72 logical processors, using up to 32 threads
Optimize a model with 12 rows, 57 columns and 590 nonzeros
Model fingerprint: 0xf32eec78
Model has 47 quadratic constraints
Coefficient statistics:
  Matrix range     [2e-05, 3e+00]
  QMatrix range    [1e+00, 1e+00]
  QLMatrix range   [1e+00, 1e+00]
  Objective range  [8e-03, 7e-01]
  Bounds range     [1e+00, 1e+00]
  RHS range        [1e+00, 1e+00]
Presolve removed 9 rows and 0 columns

Continuous model is non-convex -- solving as a MIP.

Presolve removed 9 rows and 0 columns
Presolve time: 0.00s
Presolved: 189 rows, 57 columns, 443 nonzeros
Presolved model has 47 bilinear constraint(s)
Variable types: 57 continuous, 0 integer (0 binary)

Root relaxation: objective -1.743721e+00, 44 iterations, 0.00 seconds

    Nodes    |    Current Node    |     Objective Bounds      |     Work
 Expl Unexpl |  Obj  Depth IntInf | Incumbent    BestBd   Gap | It/Node Time

     0     0   -1.74372    0   38          -   -1.74372      -     -    0s
H    0     0                       0.6147548   -1.74372   384%     -    0s
     0     0   -1.64739    0    1    0.61475   -1.64739   368%     -    0s
H    0     0                      -1.6450460   -1.64739  0.14%     -    0s
     0     0     cutoff    0        -1.64505   -1.64505  0.00%     -    0s

Cutting planes:
  RLT: 25
  BQP: 3

Explored 1 nodes (76 simplex iterations) in 0.01 seconds
Thread count was 32 (of 72 available processors)

Solution count 2: -1.64505 0.614755 
No other solutions better than -1.64505

Optimal solution found (tolerance 1.00e-04)
Best objective -1.645045978473e+00, best bound -1.645045978473e+00, gap 0.0000%

User-callback calls 78, time in user-callback 0.00 sec
Gurobi Optimizer version 9.1.2 build v9.1.2rc0 (linux64)
Thread count: 36 physical cores, 72 logical processors, using up to 32 threads
Optimize a model with 24 rows, 125 columns and 2580 nonzeros
Model fingerprint: 0x4dae01fc
Model has 105 quadratic constraints
Coefficient statistics:
  Matrix range     [5e-06, 5e+01]
  QMatrix range    [1e+00, 1e+00]
  QLMatrix range   [1e+00, 1e+00]
  Objective range  [2e-02, 1e+00]
  Bounds range     [1e+00, 1e+00]
  RHS range        [1e+00, 1e+00]
Presolve removed 10 rows and 0 columns

Continuous model is non-convex -- solving as a MIP.

Presolve removed 10 rows and 0 columns
Presolve time: 0.00s
Presolved: 429 rows, 125 columns, 2142 nonzeros
Presolved model has 105 bilinear constraint(s)
Variable types: 125 continuous, 0 integer (0 binary)

Root relaxation: objective -6.897012e+00, 123 iterations, 0.00 seconds

    Nodes    |    Current Node    |     Objective Bounds      |     Work
 Expl Unexpl |  Obj  Depth IntInf | Incumbent    BestBd   Gap | It/Node Time

     0     0   -6.89701    0   57          -   -6.89701      -     -    0s
H    0     0                      -0.4078807   -6.89701  1591%     -    0s
     0     0   -5.52494    0   95   -0.40788   -5.52494  1255%     -    0s
H    0     0                      -1.1517297   -5.52494   380%     -    0s
     0     0   -5.50974    0   95   -1.15173   -5.50974   378%     -    0s
     0     0   -5.26388    0   47   -1.15173   -5.26388   357%     -    0s
H    0     0                      -3.2804282   -5.26388  60.5%     -    0s
     0     0   -5.26292    0   33   -3.28043   -5.26292  60.4%     -    0s
     0     0   -5.14342    0   70   -3.28043   -5.14342  56.8%     -    0s
     0     0   -5.13587    0   61   -3.28043   -5.13587  56.6%     -    0s
     0     0   -5.11096    0   56   -3.28043   -5.11096  55.8%     -    0s
     0     0   -5.10396    0   56   -3.28043   -5.10396  55.6%     -    0s
     0     0   -5.09734    0   72   -3.28043   -5.09734  55.4%     -    0s
     0     0   -5.09726    0   71   -3.28043   -5.09726  55.4%     -    0s
     0     0   -5.09428    0   56   -3.28043   -5.09428  55.3%     -    0s
     0     0   -5.09407    0   82   -3.28043   -5.09407  55.3%     -    0s
     0     0   -5.09340    0   83   -3.28043   -5.09340  55.3%     -    0s
H    0     0                      -3.4786515   -5.09340  46.4%     -    0s
H    0     0                      -4.0657920   -5.09340  25.3%     -    0s
H    0     0                      -4.1638445   -5.09340  22.3%     -    0s
H    0     0                      -4.1691816   -5.09340  22.2%     -    0s
H    0     0                      -4.3920162   -5.09340  16.0%     -    0s
     0     2   -5.09340    0   83   -4.39202   -5.09340  16.0%     -    0s
*  205    49              13      -4.3924369   -4.40272  0.23%  27.0    0s
*  238    83              14      -4.3927886   -4.40249  0.22%  23.8    0s
*  239    83              13      -4.3928357   -4.40249  0.22%  23.7    0s
*  291   137              15      -4.3928400   -4.40249  0.22%  20.4    0s
*  314   137              17      -4.3946600   -4.40249  0.18%  19.1    0s
*  315   137              16      -4.3961002   -4.40249  0.15%  19.1    0s
*  362   126              18      -4.3962979   -4.40249  0.14%  17.0    0s
*  378   126              20      -4.3990391   -4.40249  0.08%  16.4    0s
*  381   126              18      -4.3990922   -4.40249  0.08%  16.3    0s
*  451    49              20      -4.3992615   -4.40249  0.07%  14.3    0s
*  454    49              21      -4.3993796   -4.40249  0.07%  14.2    0s
*  460    49              21      -4.3994658   -4.40249  0.07%  14.1    0s
*  557    22              20      -4.3995330   -4.40006  0.01%  12.0    0s
*  562    22              21      -4.3995907   -4.39984  0.01%  12.0    0s
*  582    22              21      -4.3995938   -4.39984  0.01%  11.9    0s

Cutting planes:
  RLT: 39
  BQP: 9
  PSD: 28

Explored 584 nodes (7333 simplex iterations) in 0.37 seconds
Thread count was 32 (of 72 available processors)

Solution count 10: -4.39959 -4.39959 -4.39953 ... -4.3961

Optimal solution found (tolerance 1.00e-04)
Best objective -4.399593800698e+00, best bound -4.399841707955e+00, gap 0.0056%

User-callback calls 1420, time in user-callback 0.00 sec



objective value: -4.399593800697531
objective bound: -4.399841707954529
x_opt: [1.0, 0.0, 1.0000000000000002, 2.0105857356581904e-10, 0.16283322483309845, 0.0, 1.0, 1.0, 0.4974905059067432, 0.0, 0.0, 0.0, 0.7282633188683159, 0.0, 0.45282407281469383, 0.3045474867148855, 1.1194639719778664e-7, 0.0, 3.73838794454818e-5, 0.0]
GUROBI solution time: 0.3656959533691406




